c --- [ banner ] -------------------------------------------------------------
c 
c CaDiCaL Radically Simplified CDCL SAT Solver
c Copyright (c) 2016-2021 A. Biere, M. Fleury, N. Froleyks
c 
c Version 1.5.2 a5f15211db36c3956764e18194dd5bd63bf3b5e6
c g++ (GCC) 9.3.0 -Wall -Wextra -O3 -DNDEBUG
c Fri Oct 21 01:27:37 EDT 2022 Linux gra-login3 3.10.0-1160.66.1.el7.x86_64 x86_64
c 
c --- [ limit ] --------------------------------------------------------------
c 
c setting conflict limit to 200000 conflicts (due to '200000')
c 
c --- [ parsing input ] ------------------------------------------------------
c 
c reading DIMACS file from '33.cubes4529.adj'
c opening file to read '33.cubes4529.adj'
c found 'p cnf 6160 1595477' header
c parsed 1595477 clauses in 19.03 seconds process time
c closing file '33.cubes4529.adj'
c after reading 1457566789 bytes 1390.0 MB
c 
c --- [ options ] ------------------------------------------------------------
c 
c all options are set to their default value
c 
c --- [ solving ] ------------------------------------------------------------
c 
c time measured in process time since initialization
c 
c  seconds    reductions  redundant   irredundant
c          MB     restarts       trail       variables
c            level   conflicts       glue         remaining
c 
c * 19.03 1377  0 0   0    0    0  0% 0 1595422 2401 39%
c { 20.50 1441  0 0   0    0    0  0% 0 1595422 2401 39%
c i 22.08 1481 885 0   1   35   27 36% 3 1595422 2390 39%
c i 22.58 1489 578 0   5   51   40 33% 8 1595422 2382 39%
c i 22.78 1490 278 0  12  103   48 26% 7 1595422 2373 39%
c i 23.95 1500 212 0  16  138   73 26% 10 1595422 2372 39%
c i 24.27 1502 172 0  25  173  102 27% 12 1595422 2371 38%
c i 24.48 1505 158 0  30  193  118 27% 13 1595422 2370 38%
c i 24.61 1506 154 0  32  201  124 27% 14 1595422 2343 38%
c - 30.25 1479 124 1  58  300  190 27% 22 426623 2341 38%
c i 30.67 1480 105 1  58  366  240 26% 20 426623 2340 38%
c i 30.79 1480 106 1  58  376  249 26% 21 426623 2339 38%
c i 30.82 1480 106 1  58  378  250 26% 21 426623 2338 38%
c i 30.86 1480 105 1  58  383  253 26% 21 426623 2337 38%
c i 31.51 1480 105 1  69  427  294 27% 23 426623 2336 38%
c i 31.54 1480 105 1  69  430  296 27% 24 426623 2335 38%
c i 31.74 1480 107 1  73  443  308 27% 25 426623 2334 38%
c i 32.12 1481 108 1  79  461  324 27% 26 426623 2333 38%
c i 32.37 1481 108 1  83  477  338 27% 26 426623 2332 38%
c i 32.37 1481 107 1  83  478  338 27% 26 426623 2331 38%
c 
c  seconds    reductions  redundant   irredundant
c          MB     restarts       trail       variables
c            level   conflicts       glue         remaining
c 
c i 32.87 1482 97 1  86  549  372 26% 25 426623 2330 38%
c i 33.14 1482 92 1  86  600  416 27% 24 426623 2329 38%
c i 33.17 1482 91 1  86  603  418 27% 24 426623 2328 38%
c i 33.18 1482 91 1  86  607  421 27% 24 426623 2327 38%
c i 33.28 1482 89 1  86  629  438 27% 24 426623 2326 38%
c i 33.34 1482 89 1  86  640  447 27% 24 426623 2324 38%
c i 33.39 1482 89 1  86  652  457 27% 24 426623 2322 38%
c i 33.90 1483 85 1  90  719  491 27% 24 426623 2321 38%
c i 34.31 1483 69 1  91  917  531 25% 21 426623 2320 38%
c i 34.32 1483 69 1  91  919  532 25% 21 426623 2319 38%
c i 34.33 1483 69 1  91  927  533 25% 21 426623 2312 38%
c i 34.39 1483 69 1  91  933  537 25% 21 426623 2310 38%
c } 35.29 1484 70 1 106 1002  596 26% 22 426623 2310 38%
c [ 35.29 1484  0 1 106 1002  596  0% 0 426623 2310 38%
c O 35.29 1484  0 1 106 1003  596 12% 0 426623 2310 38%
c i 35.29 1484  0 1 106 1003  596 12% 0 426623 2276 37%
c i 35.29 1484  1 1 106 1004  596 12% 0 426623 2260 37%
c i 35.68 1484 18 1 106 1096  676 32% 14 426623 2259 37%
c i 35.74 1484 21 1 106 1131  698 32% 18 426623 2258 37%
c i 35.81 1484 24 1 106 1212  740 33% 20 426623 2257 37%
c 
c  seconds    reductions  redundant   irredundant
c          MB     restarts       trail       variables
c            level   conflicts       glue         remaining
c 
c i 35.84 1484 24 1 106 1254  766 33% 21 426623 2256 37%
c i 35.85 1484 24 1 106 1271  777 33% 21 426623 2255 37%
c - 36.82 1657 24 2 106 1279  678 33% 21 425712 2255 37%
c i 37.11 1657 24 2 106 1325  704 33% 21 425712 2254 37%
c i 37.11 1657 24 2 106 1327  705 33% 21 425712 2253 37%
c i 37.16 1657 25 2 106 1359  726 33% 21 425712 2252 37%
c i 37.28 1657 25 2 106 1447  784 33% 22 425712 2251 37%
c i 37.30 1657 26 2 106 1491  816 33% 22 425712 2250 37%
c i 37.34 1657 26 2 106 1570  861 33% 22 425712 2249 37%
c - 38.52 1655 24 3 107 2745 1182 33% 21 425694 2249 37%
c ] 39.17 1655 25 3 107 3002 1358 54% 21 425694 2249 37%
c { 39.17 1655 70 3 107 3002 1358 70% 22 425694 2249 37%
c F 39.25 1655 70 3 109 3006 1362 70% 22 425694 2249 37%
c i 39.43 1655 70 3 111 3013 1367 70% 22 425694 2248 36%
c i 39.65 1655 69 3 118 3057 1400 68% 22 425694 2247 36%
c i 39.95 1655 65 3 118 3189 1504 66% 21 425694 2246 36%
c i 40.07 1655 64 3 127 3230 1536 65% 22 425694 2245 36%
c i 40.29 1655 65 3 132 3252 1555 65% 22 425694 2244 36%
c i 41.15 1655 64 3 151 3345 1637 64% 22 425694 2243 36%
c i 41.33 1655 63 3 151 3371 1661 63% 22 425694 2242 36%
c 
c  seconds    reductions  redundant   irredundant
c          MB     restarts       trail       variables
c            level   conflicts       glue         remaining
c 
c i 41.60 1655 61 3 152 3485 1746 62% 22 425694 2241 36%
c i 42.86 1655 60 3 187 3746 1943 58% 23 425694 2240 36%
c i 42.90 1655 61 3 188 3760 1954 58% 24 425694 2238 36%
c i 43.27 1655 62 3 192 3779 1971 58% 24 425694 2237 36%
c i 44.58 1655 63 3 226 3927 2091 56% 25 425694 2236 36%
c i 46.03 1655 64 3 269 4099 2227 55% 27 425694 2235 36%
c i 46.48 1655 64 3 286 4163 2283 55% 27 425694 2234 36%
c i 46.77 1655 58 3 286 4503 2557 54% 25 425694 2233 36%
c i 46.79 1655 58 3 286 4527 2570 54% 25 425694 2232 36%
c - 47.57 1650 56 4 287 4699 2077 54% 25 425643 2232 36%
c i 48.28 1650 57 4 297 4768 2133 54% 25 425643 2231 36%
c i 48.34 1650 56 4 297 4791 2153 54% 25 425643 2230 36%
c i 48.66 1650 56 4 300 4887 2240 53% 25 425643 2229 36%
c 2 50.37 1650 57 4 327 5002 3119 53% 26 425616 2220 36%
c p 60.28 1650 57 4 327 5002 5478 53% 26 425616 2187 36%
c d 60.90 1650 57 4 327 5002 5469 53% 26 425516 2186 35%
c # 63.85 1650 52 4 404 6009 6258 52% 26 425516 2186 35%
c } 66.01 1650 46 4 410 7004 6959 51% 25 425516 2186 35%
c [ 66.01 1650 25 4 410 7004 6959 54% 21 425516 2186 35%
c - 66.67 1501 25 5 411 7149 2955 52% 21 425516 2186 35%
c 
c  seconds    reductions   redundant   irredundant
c          MB     restarts        trail       variables
c            level    conflicts       glue         remaining
c 
c I 70.91 1501 25 5 412 10012 4663 46% 21 425516 2186 35%
c - 71.45 1342 25 6 412 10082 3168 46% 21 425516 2186 35%
c - 75.18 1343 27 7 415 13503 3868 46% 23 425516 2186 35%
c p 78.12 1343 28 7 415 15003 8311 46% 24 425516 2186 35%
c ] 78.22 1343 28 7 415 15004 8312 46% 24 425516 2186 35%
c { 78.22 1343 46 7 415 15004 8312 51% 25 425516 2186 35%
c B 78.35 1343 46 7 415 15015 8322 51% 25 425516 2186 35%
c - 83.14 1343 41 8 478 17412 5172 50% 23 425516 2186 35%
c s 84.12 1344 38 8 478 18753 5980 50% 22 422573 2186 35%
c v 90.65 1344 38 8 478 18753 5980 50% 22 422561 2186 35%
c t 90.83 1344 38 8 478 18753 5974 50% 22 422553 2186 35%
c e 92.20 1345 38 8 478 18753 5665 50% 22 420217 898 15%
c s 92.34 1345 38 8 478 18753 5665 50% 22 419345 898 15%
c W 99.66 1345 37 8 655 21016 7281 69% 22 419345 898 15%
c - 100.86 1345 36 9 691 21811 5792 70% 22 419345 898 15%
c - 106.93 1345 33 10 874 26680 6078 71% 22 419345 898 15%
c F 110.09 1345 33 10 917 28019 7060 71% 22 419345 898 15%
c p 117.60 1344 33 10 1059 30005 10834 71% 22 419345 898 15%
c } 118.40 1344 32 10 1059 31006 11479 72% 22 419345 898 15%
c [ 118.40 1344 28 10 1059 31006 11479 115% 24 419345 898 15%
c 
c  seconds     reductions     redundant    irredundant
c           MB      restarts         trail        variables
c             level      conflicts        glue        remaining
c 
c - 119.57 1344 28 11 1059 32034 7030 110% 23 419345 898 15%
c ] 120.50 1344 28 11 1060 33574 8051 104% 23 419345 898 15%
c 1 120.50 1344 28 11 1060 33574 8051 104% 23 419345 898 15%
c 
c --- [ writing output ] -----------------------------------------------------
c 
c writing simplified CNF to DIMACS file 'simp/33.cubes4529.adj.simp1'
c * 120.50 1344 28 11 1060 33574 8051 104% 23 419345 898 15%
c opening file to write 'simp/33.cubes4529.adj.simp1'
c writing 'p cnf 6160 419345' header
c closing file 'simp/33.cubes4529.adj.simp1'
c after writing 181299655 bytes 172.9 MB
c wrote 419345 clauses in 1.29 seconds process time
c 
c --- [ writing extension ] --------------------------------------------------
c 
c writing extension stack to 'simp/33.cubes4529.adj.ext1'
c opening file to write 'simp/33.cubes4529.adj.ext1'
c closing file 'simp/33.cubes4529.adj.ext1'
c after writing 83816 bytes 0.1 MB
c wrote 3767 witnesses in 0.00 seconds process time
c 
c --- [ result ] -------------------------------------------------------------
c 
s SATISFIABLE
c 
c --- [ run-time profiling ] -------------------------------------------------
c 
c process time taken by individual solving procedures
c (percentage relative to process time for solving)
c 
c        76.50   75.39% search
c        58.31   57.47% unstable
c        24.97   24.61% simplify
c        19.03   18.76% parse
c        16.46   16.22% stable
c        13.84   13.64% probe
c         6.66    6.57% vivify
c         2.57    2.53% elim
c         1.47    1.45% lucky
c         0.30    0.29% subsume
c         0.25    0.25% walk
c         0.15    0.15% ternary
c   =================================
c       101.46   83.31% solve
c 
c last line shows process time for solving
c (percentage relative to total process time)
c 
c --- [ statistics ] ---------------------------------------------------------
c 
c chronological:              6877        20.48 %  of conflicts
c conflicts:                 33574       330.90    per second
c decisions:                103346      1018.56    per second
c eliminated:                 1288        20.91 %  of all variables
c fixed:                       820        13.31 %  of all variables
c learned:                   32831        97.79 %  per conflict
c learned_lits:            5645738       100.00 %  learned literals
c minimized:                     0         0.00 %  learned literals
c shrunken:                3540446        62.71 %  learned literals
c minishrunken:             401386         7.11 %  learned literals
c propagations:            3918751         0.04 M  per second
c reduced:                   15237        45.38 %  per conflict
c rephased:                      7      4796.29    interval
c restarts:                   1060        31.67    interval
c stabilizing:                   3        37.43 %  of conflicts
c substituted:                  10         0.16 %  of all variables
c subsumed:                  13156         0.39 %  of all clauses
c strengthened:               7570         0.22 %  of all clauses
c ternary:                    2069         0.60 %  of resolved
c vivified:                     21         0.00 %  of all clauses
c walked:                        1     33574.00    interval
c weakened:                   2947         2.99    average size
c 
c seconds are measured in process time for solving
c 
c --- [ resources ] ----------------------------------------------------------
c 
c total process time since initialization:       121.79    seconds
c total real time since initialization:          122.16    seconds
c maximum resident set size of process:         1828.81    MB
c 
c --- [ shutting down ] ------------------------------------------------------
c 
c exit 10
WARNING! DIMACS header mismatch: wrong number of variables.
============================[ Problem Statistics ]=============================
|                                                                             |
|  Number of variables:          3491                                         |
|  Number of clauses:          419345                                         |
|  Parse time:                   2.38 s                                       |
|  Simplification time:          0.06 s                                       |
|                                                                             |
============================[ Search Statistics ]====================================================
| Conflicts |          ORIGINAL         |          LEARNT          | Num Sols |      SUBGRAPHS      |
|           |    Vars  Clauses Literals |    Limit  Clauses Lit/Cl |          | Canonical Noncanon. |
=====================================================================================================
|       105 |    3399   419350 39692798 |     2000      105    110 |        0 |        17         5 |
|       364 |    3399   419459 39694493 |     2000      364     72 |        0 |        40       114 |
|       633 |    3399   419503 39695346 |     2000      633     74 |        0 |        55       158 |
|       972 |    3399   419505 39695392 |     2000      972     78 |        0 |        67       160 |
|      1490 |    3399   419517 39695917 |     2000     1490     92 |        0 |        91       172 |
|      2283 |    3399   419551 39696450 |     3599     1282     64 |        0 |       114       206 |
|      3541 |    3399   419670 39698210 |     3599     2540     84 |        0 |       166       325 |
|      8726 |    3399   423147 39768660 |     6303     3429     23 |        0 |       815      3802 |
|     11635 |    3399   423494 39773568 |     7563     3198     24 |        0 |       916      4149 |
|     16017 |    3399   424032 39786004 |     8787     3804     20 |        0 |      1138      4687 |
|     21963 |    3399   424212 39790109 |     9997     5360     34 |        0 |      1240      4867 |
|     34798 |    3399   428398 39861891 |    12411     7609     34 |        0 |      2108      9053 |
|     57370 |    3399   437996 40020305 |    16007     9777     32 |        0 |      3897     18651 |
|     79698 |    3399   440863 40073317 |    18406    15504     58 |        0 |      4473     21518 |
|    122226 |    3399   454199 40307704 |    23207    17633     16 |        0 |      6301     34854 |
|    191475 |    3399   479659 40771429 |    29217    22892     52 |        0 |      9961     60314 |
|    275291 |    3399   497791 41021097 |    35215    27706     54 |        0 |     13365     78446 |
|    392388 |    3399   516362 41335989 |    42414    30202     47 |        0 |     15590     97017 |
|    650053 |    3399   626238 42870376 |    54416    48869     63 |        0 |     21219    206893 |
|    885592 |    3399   640094 43058157 |    64016    50008     48 |        0 |     22436    220749 |
|   1248921 |    3399   670898 43495602 |    76025    66346     60 |        0 |     24438    251553 |
|   1802480 |    3399   725669 44309617 |    91623    79103     53 |        0 |     30751    306324 |
|   2693725 |    3393   706076 37240923 |   112018    73650     55 |        0 |     42950    449387 |
=====================================================================================================
Number of solutions   : 0
Canonical subgraphs   : 45749          (16 /sec)
          order  3    : 1              (200000 /sec)
          order  4    : 1              (500000 /sec)
          order  5    : 1              (200000 /sec)
          order  6    : 1              (55556 /sec)
          order  7    : 1              (8000 /sec)
          order  8    : 2              (1360 /sec)
          order  9    : 7              (353 /sec)
          order 10    : 35             (120 /sec)
          order 11    : 202            (50 /sec)
          order 12    : 969            (14 /sec)
          order 13    : 7279           (13 /sec)
          order 14    : 17979          (14 /sec)
          order 15    : 7029           (24 /sec)
          order 16    : 7223           (18 /sec)
          order 17    : 2987           (15 /sec)
          order 18    : 979            (13 /sec)
          order 19    : 460            (17 /sec)
          order 20    : 270            (23 /sec)
          order 21    : 323            (24 /sec)
          order 22    : 0              (-nan /sec)
Noncanonical subgraphs: 467713         (120 /sec)
          order  3    : 0              (-nan /sec)
          order  4    : 0              (-nan /sec)
          order  5    : 0              (-nan /sec)
          order  6    : 0              (-nan /sec)
          order  7    : 0              (-nan /sec)
          order  8    : 0              (-nan /sec)
          order  9    : 0              (-nan /sec)
          order 10    : 0              (-nan /sec)
          order 11    : 0              (-nan /sec)
          order 12    : 0              (-nan /sec)
          order 13    : 23951          (3294 /sec)
          order 14    : 37775          (663 /sec)
          order 15    : 373272         (104 /sec)
          order 16    : 20321          (179 /sec)
          order 17    : 6379           (148 /sec)
          order 18    : 5640           (69 /sec)
          order 19    : 4              (805 /sec)
          order 20    : 8              (694 /sec)
          order 21    : 4              (657 /sec)
Canonicity checking   : 2917.81 s
Noncanonicity checking: 3907.86 s
Total canonicity time : 6825.67 s
database reductions   : 94
restarts              : 5051
conflicts             : 2858764        (343 /sec)
decisions             : 3971208        (0.00 % random) (477 /sec)
propagations          : 132278066      (15880 /sec)
conflict literals     : 283993848      (53.77 % deleted)
actual reward         : 0.253646
Memory used           : 632.00 MB
CPU time              : 8329.81 s

UNSATISFIABLE
